67979
8 11 723
11 17 768
17 3 606
3 29 380
29 13 2070
13 1 433
1 51 598
51 14 631
14 38 485
38 45 214
45 35 402
35 15 938
15 9 734
9 21 117
21 28 544
28 20 516
20 22 176
22 52 388
52 33 396
33 53 401
53 46 491
46 16 1871
16 47 415
47 48 761
48 25 560
25 54 397
54 27 487
27 5 404
5 2 385
2 42 1096
42 12 790
12 50 644
50 36 590
36 4 467
4 34 323
34 23 296
23 6 1298
6 19 846
19 49 763
49 39 2770
39 40 2205
40 31 362
31 43 676
43 7 383
7 37 368
37 18 1939
18 44 4612
44 41 1302
41 10 1343
10 24 545
24 30 299
30 26 4460
26 32 4053
32 0 7621
0 8 10637
